(set-logic QF_SLIA)
(declare-const result String)
(declare-const attack String)
(declare-const prefix RegLan)
(declare-const infix RegLan)
(declare-const postfix RegLan)
(declare-const postfixs String)

(assert (str.in_re attack (re.++ prefix ((_ re.loop 5000 5000) infix) postfix)))
(assert (= prefix 
     (re.++  (re.++ (re.opt  (re.union  (re.++  (str.to_re "\x48") (re.++  (str.to_re "\x54") (re.++  (str.to_re "\x43")  (str.to_re "\x5c\x2f"))))  (re.++  (str.to_re "\x48") (re.++  (str.to_re "\x54") (re.++  (str.to_re "\x43") (re.++  (str.to_re "\x5c\x2f") (re.++ (re.+  (re.union (re.range "0" "9") (re.range "\x61" "\x7a")) )  (str.to_re "\x5c\x2f"))))))) ) (re.++  (str.to_re "\x48") (re.++  (str.to_re "\x54") (re.++  (str.to_re "\x43") (re.opt  (re.union  (str.to_re "\x20") (re.union  (str.to_re "\x5c\x2d") (re.union  (str.to_re "\x3b")  (str.to_re "\x5f")))) )))))  (re.inter (re.*  (str.to_re "\x20") )  (re.++   (re.union (re.union (str.to_re "\t") (str.to_re "\n") (str.to_re "\r") (str.to_re " ")) (re.inter re.allchar (re.comp (re.union (str.to_re "\t") (str.to_re "\n") (str.to_re "\r") (str.to_re " "))))) (re.*   (re.union (re.union (str.to_re "\t") (str.to_re "\n") (str.to_re "\r") (str.to_re " ")) (re.inter re.allchar (re.comp (re.union (str.to_re "\t") (str.to_re "\n") (str.to_re "\r") (str.to_re " "))))) ))))
))
(assert (= infix 
         (re.++ (re.*  (str.to_re "\x20") ) (re.++  (str.to_re "\x26") (re.++  (re.++ (re.*  (str.to_re "\x20") ) (re.++  (re.*  (re.union  (str.to_re "\x0a")  (str.to_re "\x0d")) ))) (re.++  (str.to_re "\x26") (re.++ (re.*  (re.union  (str.to_re "\x0a")  (str.to_re "\x0d")) ) (re.++  (str.to_re "\x26") (re.+ re.allchar )))))))
))
(assert (= postfix 
        (re.inter  (re.inter  (re.++  (str.to_re "\x00") (re.*  (re.union (re.union (str.to_re "\t") (str.to_re "\n") (str.to_re "\r") (str.to_re " ")) (re.inter re.allchar (re.comp (re.union (str.to_re "\t") (str.to_re "\n") (str.to_re "\r") (str.to_re " "))))) )) (re.comp  (re.inter (re.* re.allchar )  (re.++   (re.union (re.union (str.to_re "\t") (str.to_re "\n") (str.to_re "\r") (str.to_re " ")) (re.inter re.allchar (re.comp (re.union (str.to_re "\t") (str.to_re "\n") (str.to_re "\r") (str.to_re " "))))) (re.*   (re.union (re.union (str.to_re "\t") (str.to_re "\n") (str.to_re "\r") (str.to_re " ")) (re.inter re.allchar (re.comp (re.union (str.to_re "\t") (str.to_re "\n") (str.to_re "\r") (str.to_re " "))))) )))))  (re.inter  (re.++  (str.to_re "\x00") (re.*  (re.union (re.union (str.to_re "\t") (str.to_re "\n") (str.to_re "\r") (str.to_re " ")) (re.inter re.allchar (re.comp (re.union (str.to_re "\t") (str.to_re "\n") (str.to_re "\r") (str.to_re " "))))) )) (re.comp  (re.++  (re.inter (re.* re.allchar )  (re.++   (re.union (re.union (str.to_re "\t") (str.to_re "\n") (str.to_re "\r") (str.to_re " ")) (re.inter re.allchar (re.comp (re.union (str.to_re "\t") (str.to_re "\n") (str.to_re "\r") (str.to_re " "))))) (re.*   (re.union (re.union (str.to_re "\t") (str.to_re "\n") (str.to_re "\r") (str.to_re " ")) (re.inter re.allchar (re.comp (re.union (str.to_re "\t") (str.to_re "\n") (str.to_re "\r") (str.to_re " "))))) ))) (re.opt  (re.union  (re.++ (re.opt  (str.to_re "\x2d") ) (re.++  (str.to_re "\x4d") (re.++  (str.to_re "\x6f") (re.++  (str.to_re "\x7a") (re.++  (str.to_re "\x69") (re.++  (str.to_re "\x6c") (re.++  (str.to_re "\x6c")  (str.to_re "\x61")))))))) (re.union  (re.++  (str.to_re "\x66") (re.++  (str.to_re "\x69") (re.++  (str.to_re "\x6e") (re.++  (str.to_re "\x67") (re.++  (str.to_re "\x65") (re.++  (str.to_re "\x72") (re.++  (str.to_re "\x50") (re.++  (str.to_re "\x72") (re.++  (str.to_re "\x69") (re.++  (str.to_re "\x6e")  (str.to_re "\x74")))))))))))  (re.union  (str.to_re "\x5c\x2f") (re.union  (str.to_re "\x3b") (re.union  (str.to_re "\x5c\x28")  (str.to_re "\x5c\x29")))))) )))) )
))
(assert (str.in_re postfixs postfix))
(assert (>= (str.len postfixs) 1))
(assert (= result (str.++ attack postfixs)))
(check-sat)
(get-model)